c Reduced graph for 2-FullIns_3_2 generated by Cyril Grelier
p edge 20 47
e 1 3
e 1 7
e 1 8
e 1 9
e 1 14
e 1 15
e 1 16
e 1 17
e 1 18
e 1 19
e 1 20
e 2 4
e 2 5
e 2 6
e 2 7
e 2 8
e 2 9
e 2 10
e 2 11
e 2 15
e 2 16
e 3 4
e 3 5
e 3 6
e 3 10
e 3 11
e 4 5
e 4 6
e 4 8
e 4 9
e 5 6
e 5 7
e 5 9
e 6 7
e 6 8
e 10 13
e 10 18
e 11 12
e 11 17
e 12 13
e 12 16
e 12 18
e 13 15
e 13 17
e 14 19
e 14 20
e 19 20
